c "349457.clq"
p edge 100 1344
e 1 17
e 1 18
e 1 19
e 1 20
e 1 21
e 1 22
e 1 24
e 1 25
e 1 28
e 1 33
e 1 34
e 1 35
e 1 37
e 1 38
e 1 39
e 1 41
e 1 42
e 1 43
e 1 48
e 1 51
e 1 56
e 1 58
e 1 60
e 1 62
e 1 79
e 1 83
e 1 85
e 1 87
e 1 96
e 2 17
e 2 18
e 2 19
e 2 20
e 2 21
e 2 22
e 2 23
e 2 26
e 2 28
e 2 29
e 2 30
e 2 31
e 2 34
e 2 40
e 2 44
e 2 48
e 2 51
e 2 53
e 2 55
e 2 60
e 2 63
e 2 67
e 2 68
e 2 69
e 2 70
e 2 80
e 2 83
e 2 86
e 2 98
e 3 17
e 3 18
e 3 19
e 3 20
e 3 21
e 3 24
e 3 26
e 3 27
e 3 28
e 3 30
e 3 32
e 3 33
e 3 35
e 3 39
e 3 41
e 3 46
e 3 47
e 3 50
e 3 56
e 3 60
e 3 65
e 3 67
e 3 68
e 3 69
e 3 75
e 3 79
e 3 97
e 4 17
e 4 18
e 4 19
e 4 20
e 4 21
e 4 22
e 4 23
e 4 24
e 4 25
e 4 26
e 4 30
e 4 31
e 4 32
e 4 41
e 4 47
e 4 48
e 4 49
e 4 50
e 4 52
e 4 57
e 4 60
e 4 61
e 4 65
e 4 67
e 4 73
e 4 75
e 4 77
e 4 82
e 4 84
e 4 86
e 4 90
e 4 92
e 4 96
e 5 17
e 5 18
e 5 19
e 5 20
e 5 22
e 5 24
e 5 27
e 5 30
e 5 32
e 5 39
e 5 43
e 5 44
e 5 59
e 5 61
e 5 63
e 5 66
e 5 69
e 5 81
e 5 85
e 6 17
e 6 18
e 6 19
e 6 20
e 6 21
e 6 22
e 6 25
e 6 26
e 6 29
e 6 37
e 6 42
e 6 44
e 6 46
e 6 51
e 6 52
e 6 53
e 6 65
e 6 74
e 6 78
e 6 95
e 7 17
e 7 18
e 7 19
e 7 21
e 7 24
e 7 28
e 7 32
e 7 34
e 7 36
e 7 38
e 7 40
e 7 43
e 7 44
e 7 45
e 7 52
e 7 55
e 7 56
e 7 57
e 7 62
e 7 66
e 7 73
e 7 74
e 7 83
e 7 89
e 7 91
e 7 92
e 8 17
e 8 18
e 8 19
e 8 21
e 8 22
e 8 24
e 8 26
e 8 27
e 8 28
e 8 29
e 8 30
e 8 34
e 8 35
e 8 36
e 8 38
e 8 41
e 8 47
e 8 53
e 8 55
e 8 56
e 8 57
e 8 58
e 8 64
e 8 65
e 8 72
e 8 75
e 8 76
e 8 88
e 8 90
e 8 98
e 9 17
e 9 18
e 9 21
e 9 23
e 9 25
e 9 33
e 9 36
e 9 38
e 9 40
e 9 45
e 9 56
e 9 65
e 9 69
e 9 81
e 9 94
e 9 98
e 10 17
e 10 18
e 10 19
e 10 20
e 10 22
e 10 23
e 10 25
e 10 31
e 10 56
e 10 59
e 10 61
e 10 69
e 10 73
e 10 74
e 10 75
e 10 80
e 10 81
e 10 97
e 11 17
e 11 18
e 11 19
e 11 20
e 11 21
e 11 22
e 11 23
e 11 24
e 11 25
e 11 26
e 11 31
e 11 32
e 11 33
e 11 34
e 11 35
e 11 38
e 11 42
e 11 46
e 11 52
e 11 62
e 11 66
e 11 77
e 11 78
e 11 79
e 11 85
e 11 86
e 11 89
e 11 94
e 11 95
e 11 100
e 12 17
e 12 18
e 12 20
e 12 21
e 12 23
e 12 27
e 12 28
e 12 35
e 12 38
e 12 40
e 12 44
e 12 49
e 12 51
e 12 53
e 12 54
e 12 57
e 12 61
e 12 70
e 12 80
e 12 86
e 12 89
e 12 91
e 13 17
e 13 18
e 13 19
e 13 20
e 13 21
e 13 22
e 13 23
e 13 24
e 13 25
e 13 26
e 13 27
e 13 30
e 13 33
e 13 37
e 13 45
e 13 46
e 13 56
e 13 57
e 13 68
e 13 82
e 13 91
e 13 92
e 14 17
e 14 18
e 14 19
e 14 20
e 14 21
e 14 22
e 14 23
e 14 27
e 14 29
e 14 32
e 14 33
e 14 35
e 14 42
e 14 45
e 14 46
e 14 48
e 14 50
e 14 53
e 14 54
e 14 58
e 14 64
e 14 66
e 14 78
e 14 80
e 14 84
e 14 85
e 14 89
e 14 90
e 14 95
e 14 98
e 15 17
e 15 18
e 15 19
e 15 20
e 15 22
e 15 23
e 15 26
e 15 29
e 15 36
e 15 37
e 15 43
e 15 48
e 15 50
e 16 17
e 16 19
e 16 20
e 16 23
e 16 24
e 16 25
e 16 27
e 16 28
e 16 29
e 16 30
e 16 33
e 16 37
e 16 38
e 16 48
e 16 49
e 16 50
e 16 59
e 16 60
e 16 63
e 16 67
e 16 77
e 16 79
e 16 87
e 16 90
e 16 91
e 16 94
e 17 18
e 17 19
e 17 20
e 17 21
e 17 22
e 17 23
e 17 24
e 17 25
e 17 26
e 17 29
e 17 30
e 17 31
e 17 32
e 17 33
e 17 34
e 17 36
e 17 37
e 17 38
e 17 40
e 17 41
e 17 42
e 17 43
e 17 47
e 17 48
e 17 50
e 17 51
e 17 52
e 17 53
e 17 58
e 17 60
e 17 61
e 17 62
e 17 63
e 17 66
e 17 67
e 17 72
e 17 73
e 17 77
e 17 85
e 17 86
e 17 90
e 17 93
e 17 97
e 17 99
e 17 100
e 18 19
e 18 20
e 18 21
e 18 22
e 18 23
e 18 24
e 18 25
e 18 26
e 18 27
e 18 28
e 18 29
e 18 30
e 18 31
e 18 32
e 18 34
e 18 35
e 18 37
e 18 39
e 18 40
e 18 41
e 18 44
e 18 45
e 18 46
e 18 48
e 18 50
e 18 51
e 18 54
e 18 55
e 18 57
e 18 64
e 18 71
e 18 72
e 18 75
e 18 76
e 18 77
e 18 83
e 18 86
e 18 88
e 18 91
e 19 20
e 19 21
e 19 22
e 19 23
e 19 24
e 19 25
e 19 26
e 19 27
e 19 28
e 19 29
e 19 30
e 19 31
e 19 33
e 19 36
e 19 37
e 19 39
e 19 41
e 19 43
e 19 45
e 19 46
e 19 47
e 19 48
e 19 50
e 19 51
e 19 54
e 19 56
e 19 58
e 19 59
e 19 62
e 19 64
e 19 66
e 19 68
e 19 69
e 19 71
e 19 72
e 19 73
e 19 75
e 19 78
e 19 79
e 19 80
e 19 81
e 19 83
e 19 84
e 19 91
e 19 94
e 19 96
e 19 98
e 19 100
e 20 21
e 20 22
e 20 23
e 20 24
e 20 25
e 20 26
e 20 27
e 20 28
e 20 29
e 20 30
e 20 31
e 20 34
e 20 35
e 20 36
e 20 40
e 20 41
e 20 42
e 20 45
e 20 46
e 20 47
e 20 49
e 20 50
e 20 51
e 20 52
e 20 54
e 20 55
e 20 57
e 20 59
e 20 62
e 20 64
e 20 68
e 20 70
e 20 72
e 20 74
e 20 76
e 20 77
e 20 79
e 20 84
e 20 85
e 20 86
e 20 89
e 20 93
e 20 98
e 20 99
e 21 22
e 21 23
e 21 24
e 21 25
e 21 26
e 21 27
e 21 28
e 21 29
e 21 31
e 21 32
e 21 34
e 21 35
e 21 36
e 21 37
e 21 38
e 21 39
e 21 40
e 21 41
e 21 44
e 21 45
e 21 50
e 21 51
e 21 54
e 21 55
e 21 57
e 21 58
e 21 59
e 21 60
e 21 64
e 21 66
e 21 67
e 21 75
e 21 76
e 21 82
e 21 83
e 21 87
e 21 88
e 21 90
e 21 93
e 21 98
e 22 23
e 22 24
e 22 25
e 22 26
e 22 27
e 22 28
e 22 29
e 22 30
e 22 31
e 22 32
e 22 33
e 22 35
e 22 36
e 22 37
e 22 38
e 22 39
e 22 40
e 22 42
e 22 43
e 22 44
e 22 47
e 22 52
e 22 55
e 22 57
e 22 58
e 22 60
e 22 61
e 22 65
e 22 67
e 22 70
e 22 71
e 22 73
e 22 74
e 22 75
e 22 78
e 22 82
e 22 87
e 22 91
e 22 93
e 22 97
e 23 24
e 23 25
e 23 27
e 23 29
e 23 30
e 23 31
e 23 33
e 23 34
e 23 36
e 23 37
e 23 39
e 23 42
e 23 43
e 23 44
e 23 45
e 23 46
e 23 49
e 23 50
e 23 51
e 23 52
e 23 54
e 23 55
e 23 56
e 23 57
e 23 59
e 23 61
e 23 62
e 23 63
e 23 65
e 23 67
e 23 68
e 23 69
e 23 70
e 23 72
e 23 74
e 23 76
e 23 77
e 23 78
e 23 79
e 23 80
e 23 81
e 23 83
e 23 84
e 23 85
e 23 89
e 23 97
e 23 99
e 24 25
e 24 26
e 24 27
e 24 28
e 24 29
e 24 30
e 24 31
e 24 32
e 24 33
e 24 34
e 24 35
e 24 37
e 24 38
e 24 42
e 24 46
e 24 48
e 24 52
e 24 55
e 24 62
e 24 65
e 24 69
e 24 73
e 24 76
e 24 81
e 24 82
e 24 84
e 24 85
e 24 88
e 24 90
e 24 92
e 24 97
e 24 100
e 25 26
e 25 27
e 25 28
e 25 29
e 25 30
e 25 31
e 25 32
e 25 33
e 25 34
e 25 36
e 25 39
e 25 41
e 25 42
e 25 43
e 25 45
e 25 47
e 25 49
e 25 50
e 25 51
e 25 52
e 25 53
e 25 54
e 25 56
e 25 60
e 25 63
e 25 65
e 25 72
e 25 73
e 25 77
e 25 78
e 25 81
e 25 82
e 25 84
e 25 86
e 25 88
e 25 89
e 25 90
e 25 92
e 25 97
e 25 99
e 26 27
e 26 28
e 26 31
e 26 32
e 26 33
e 26 34
e 26 35
e 26 36
e 26 37
e 26 39
e 26 41
e 26 42
e 26 43
e 26 45
e 26 48
e 26 49
e 26 50
e 26 53
e 26 54
e 26 57
e 26 58
e 26 62
e 26 63
e 26 64
e 26 65
e 26 67
e 26 69
e 26 71
e 26 73
e 26 78
e 26 81
e 26 83
e 26 84
e 26 85
e 26 86
e 26 96
e 27 28
e 27 29
e 27 32
e 27 34
e 27 36
e 27 40
e 27 43
e 27 45
e 27 46
e 27 49
e 27 51
e 27 55
e 27 56
e 27 60
e 27 62
e 27 63
e 27 67
e 27 70
e 27 71
e 27 72
e 27 76
e 27 78
e 27 80
e 27 81
e 27 82
e 27 91
e 27 92
e 27 94
e 27 97
e 27 98
e 27 99
e 27 100
e 28 30
e 28 34
e 28 35
e 28 36
e 28 39
e 28 41
e 28 49
e 28 56
e 28 62
e 28 73
e 28 91
e 29 31
e 29 36
e 29 41
e 29 44
e 29 52
e 29 55
e 29 60
e 29 72
e 29 75
e 29 82
e 29 88
e 29 99
e 30 31
e 30 32
e 30 33
e 30 37
e 30 39
e 30 42
e 30 45
e 30 52
e 30 60
e 30 63
e 30 65
e 30 69
e 30 70
e 30 73
e 30 74
e 30 75
e 30 76
e 30 78
e 30 79
e 30 82
e 30 83
e 30 87
e 30 88
e 30 94
e 31 32
e 31 35
e 31 38
e 31 39
e 31 40
e 31 41
e 31 47
e 31 48
e 31 49
e 31 53
e 31 54
e 31 58
e 31 59
e 31 65
e 31 66
e 31 68
e 31 69
e 31 70
e 31 71
e 31 77
e 31 79
e 31 83
e 31 85
e 31 86
e 31 91
e 31 94
e 31 99
e 31 100
e 32 33
e 32 35
e 32 36
e 32 37
e 32 43
e 32 48
e 32 49
e 32 53
e 32 55
e 32 61
e 32 63
e 32 64
e 32 66
e 32 70
e 32 76
e 32 79
e 32 81
e 32 83
e 32 88
e 32 89
e 32 92
e 32 96
e 33 34
e 33 38
e 33 39
e 33 40
e 33 43
e 33 44
e 33 45
e 33 46
e 33 47
e 33 49
e 33 53
e 33 54
e 33 57
e 33 59
e 33 60
e 33 62
e 33 70
e 33 76
e 33 77
e 33 79
e 33 83
e 33 92
e 33 94
e 33 100
e 34 35
e 34 38
e 34 39
e 34 40
e 34 42
e 34 47
e 34 48
e 34 49
e 34 53
e 34 58
e 34 59
e 34 66
e 34 74
e 34 75
e 34 80
e 34 81
e 34 86
e 34 91
e 34 92
e 34 93
e 34 99
e 35 38
e 35 42
e 35 43
e 35 47
e 35 49
e 35 52
e 35 58
e 35 64
e 35 66
e 35 68
e 35 71
e 35 83
e 35 88
e 35 89
e 35 91
e 35 98
e 36 37
e 36 39
e 36 40
e 36 42
e 36 44
e 36 45
e 36 54
e 36 59
e 36 61
e 36 63
e 36 64
e 36 67
e 36 68
e 36 70
e 36 82
e 36 84
e 36 87
e 36 91
e 36 95
e 37 38
e 37 41
e 37 44
e 37 49
e 37 52
e 37 61
e 37 66
e 37 68
e 37 70
e 37 81
e 37 84
e 37 86
e 37 87
e 37 89
e 37 97
e 38 40
e 38 50
e 38 53
e 38 64
e 38 68
e 38 72
e 38 79
e 38 85
e 38 88
e 38 90
e 38 91
e 38 94
e 38 95
e 39 40
e 39 44
e 39 45
e 39 46
e 39 47
e 39 51
e 39 59
e 39 63
e 39 68
e 39 71
e 39 74
e 39 75
e 39 77
e 39 78
e 39 80
e 39 96
e 39 99
e 40 41
e 40 43
e 40 44
e 40 46
e 40 50
e 40 51
e 40 52
e 40 53
e 40 55
e 40 56
e 40 57
e 40 58
e 40 61
e 40 66
e 40 68
e 40 76
e 40 80
e 40 82
e 40 85
e 40 88
e 40 96
e 40 97
e 40 98
e 40 99
e 41 42
e 41 43
e 41 46
e 41 48
e 41 53
e 41 71
e 41 75
e 41 90
e 41 93
e 41 97
e 41 98
e 42 54
e 42 55
e 42 56
e 42 57
e 42 69
e 42 72
e 42 74
e 42 100
e 43 44
e 43 47
e 43 58
e 43 59
e 43 60
e 43 66
e 43 69
e 43 77
e 43 84
e 43 85
e 43 87
e 43 89
e 43 95
e 44 47
e 44 48
e 44 51
e 44 70
e 44 90
e 44 94
e 45 46
e 45 49
e 45 50
e 45 54
e 45 57
e 45 74
e 45 79
e 45 82
e 45 85
e 45 86
e 45 89
e 45 93
e 45 95
e 46 47
e 46 53
e 46 56
e 46 57
e 46 61
e 46 63
e 46 65
e 46 71
e 46 82
e 46 86
e 46 96
e 47 51
e 47 55
e 47 71
e 47 94
e 48 67
e 48 68
e 48 70
e 48 71
e 48 74
e 48 87
e 48 99
e 48 100
e 49 62
e 49 63
e 49 64
e 49 66
e 49 67
e 49 69
e 49 73
e 49 80
e 49 97
e 50 59
e 50 67
e 50 91
e 51 52
e 51 54
e 51 64
e 51 65
e 51 66
e 51 70
e 51 72
e 51 73
e 51 81
e 51 90
e 51 94
e 51 95
e 51 98
e 52 55
e 52 61
e 52 64
e 52 72
e 52 77
e 52 83
e 52 91
e 52 95
e 52 100
e 53 54
e 53 56
e 53 69
e 53 96
e 54 59
e 54 76
e 54 82
e 54 85
e 54 88
e 54 94
e 54 95
e 55 58
e 55 64
e 55 71
e 55 74
e 55 78
e 55 93
e 55 97
e 56 58
e 56 61
e 56 62
e 56 72
e 56 80
e 56 82
e 56 84
e 56 89
e 56 92
e 56 95
e 56 100
e 57 58
e 57 59
e 57 62
e 57 63
e 57 67
e 57 75
e 57 88
e 57 92
e 57 94
e 57 96
e 58 60
e 58 61
e 58 62
e 58 68
e 58 71
e 58 73
e 58 86
e 58 95
e 58 99
e 59 60
e 59 61
e 59 69
e 59 72
e 59 75
e 59 76
e 59 83
e 59 93
e 59 96
e 59 97
e 60 63
e 60 64
e 60 65
e 60 80
e 60 90
e 60 93
e 61 73
e 61 76
e 61 92
e 62 73
e 62 79
e 62 80
e 63 65
e 63 77
e 63 78
e 63 81
e 63 93
e 63 99
e 63 100
e 64 74
e 64 88
e 64 92
e 64 93
e 65 67
e 65 68
e 65 78
e 65 79
e 65 93
e 65 100
e 66 78
e 66 89
e 67 70
e 67 71
e 67 72
e 67 74
e 67 87
e 68 76
e 68 77
e 68 79
e 68 84
e 68 98
e 69 71
e 69 75
e 69 87
e 69 97
e 69 98
e 70 84
e 70 92
e 70 93
e 70 100
e 71 82
e 71 83
e 71 85
e 71 87
e 71 96
e 72 81
e 72 89
e 72 92
e 73 74
e 73 76
e 73 80
e 73 87
e 73 88
e 73 92
e 73 95
e 74 77
e 74 78
e 74 93
e 75 80
e 76 86
e 76 87
e 76 88
e 77 87
e 77 98
e 78 81
e 78 95
e 79 84
e 79 90
e 79 95
e 79 99
e 81 84
e 81 95
e 82 90
e 83 96
e 83 98
e 84 87
e 86 96
e 86 100
e 87 93
e 87 94
e 88 89
e 89 90
e 89 99
e 90 96
e 90 97
e 92 94
e 92 96
e 94 99
e 99 100
